certificates/rado_a15_c148_N31.cnf
c Rad2 upper bound instance: x1 + 15*x2 - x3 = 148, interval [1,31]
p cnf 31 128
1 3 10 0
-1 -3 -10 0
1 11 18 0
-1 -11 -18 0
2 4 10 0
-2 -4 -10 0
2 11 19 0
-2 -11 -19 0
3 5 10 0
-3 -5 -10 0
3 11 20 0
-3 -11 -20 0
4 6 10 0
-4 -6 -10 0
4 11 21 0
-4 -11 -21 0
5 7 10 0
-5 -7 -10 0
5 11 22 0
-5 -11 -22 0
6 8 10 0
-6 -8 -10 0
6 11 23 0
-6 -11 -23 0
7 9 10 0
-7 -9 -10 0
7 11 24 0
-7 -11 -24 0
8 10 0
-8 -10 0
8 11 25 0
-8 -11 -25 0
9 10 11 0
-9 -10 -11 0
9 11 26 0
-9 -11 -26 0
10 12 0
-10 -12 0
10 11 27 0
-10 -11 -27 0
10 11 13 0
-10 -11 -13 0
11 28 0
-11 -28 0
10 12 14 0
-10 -12 -14 0
11 12 29 0
-11 -12 -29 0
10 13 15 0
-10 -13 -15 0
11 13 30 0
-11 -13 -30 0
1 9 14 0
-1 -9 -14 0
10 14 16 0
-10 -14 -16 0
11 14 31 0
-11 -14 -31 0
2 9 15 0
-2 -9 -15 0
10 15 17 0
-10 -15 -17 0
3 9 16 0
-3 -9 -16 0
10 16 18 0
-10 -16 -18 0
4 9 17 0
-4 -9 -17 0
10 17 19 0
-10 -17 -19 0
5 9 18 0
-5 -9 -18 0
10 18 20 0
-10 -18 -20 0
6 9 19 0
-6 -9 -19 0
10 19 21 0
-10 -19 -21 0
7 9 20 0
-7 -9 -20 0
10 20 22 0
-10 -20 -22 0
8 9 21 0
-8 -9 -21 0
10 21 23 0
-10 -21 -23 0
9 22 0
-9 -22 0
10 22 24 0
-10 -22 -24 0
9 10 23 0
-9 -10 -23 0
10 23 25 0
-10 -23 -25 0
9 11 24 0
-9 -11 -24 0
10 24 26 0
-10 -24 -26 0
9 12 25 0
-9 -12 -25 0
10 25 27 0
-10 -25 -27 0
9 13 26 0
-9 -13 -26 0
10 26 28 0
-10 -26 -28 0
9 14 27 0
-9 -14 -27 0
10 27 29 0
-10 -27 -29 0
9 15 28 0
-9 -15 -28 0
10 28 30 0
-10 -28 -30 0
1 8 29 0
-1 -8 -29 0
9 16 29 0
-9 -16 -29 0
10 29 31 0
-10 -29 -31 0
2 8 30 0
-2 -8 -30 0
9 17 30 0
-9 -17 -30 0
3 8 31 0
-3 -8 -31 0
9 18 31 0
-9 -18 -31 0
