certificates/rado_a15_c148_N31.drat
-29 -31 0
d -29 -10 -31 0
-28 -4 10 0
10 -30 -31 0
-10 -31 0
-31 0
11 10 0
d 11 27 10 0
10 0
-8 0
-12 0
3 0
-1 0
-5 0
29 0
-27 0
11 0
-20 0
-13 0
-28 0
-9 0
14 0
18 0
7 0
21 0
22 0
25 0
26 0
15 0
-16 0
-24 0
-23 0
-19 0
-4 0
-17 0
6 0
0
